100 93009

 146 464
879 280
101 151
880 240
830 266
880 694
241 105
923 937
759 433
163 913
884 497
173 440
502 748
547 685
284 158
359 172
381 494
870 970
905 311
972 403
911 669
533 770
820 676
163 659
609 903
307 666
339 463
55 367
983 550
333 643
127 870
940 255
705 208
243 450
861 95
600 860
848 839
409 478
503 683
727 762
604 190
303 711
464 484
235 733
696 536
38 756
139 423
195 836
527 640
769 605
647 812
1 133
561 55
96 989
713 510
413 670
538 541
855 410
429 211
235 666
349 293
756 987
870 734
481 115
839 949
396 670
351 259
416 763
886 122
916 299
887 775
51 381
81 561
36 889
67 841
641 501
882 297
667 362
757 589
623 463
680 438
481 127
468 197
142 221
356 995
709 91
471 411
621 8
888 544
591 468
902 320
673 394
439 269
531 191
127 861
205 675
29 61
445 438
966 264
719 797
